NAME : random_6
COMMENT : 50 random nodes
TYPE : TSP
DIMENSION : 50
EDGE_WEIGHT_TYPE : EUC_2D
NODE_COORD_SECTION
1 567 157
2 269 520
3 419 661
4 526 341
5 275 689
6 840 388
7 60 652
8 767 984
9 680 475
10 146 490
11 837 965
12 884 443
13 655 81
14 552 716
15 827 683
16 170 106
17 415 742
18 92 319
19 649 725
20 858 270
21 785 538
22 571 149
23 956 175
24 397 974
25 650 129
26 660 772
27 487 353
28 633 486
29 395 554
30 656 362
31 886 390
32 249 528
33 761 941
34 216 594
35 494 789
36 851 199
37 738 416
38 159 653
39 817 42
40 830 628
41 653 477
42 919 6
43 982 490
44 404 303
45 331 352
46 853 130
47 591 197
48 360 37
49 348 635
50 626 193
EOF